p cnf 10 38
-1 -9 3 0
-4 -6 9 0
-10 -2 4 0
-10 2 4 0
-9 1 2 0
-10 -8 5 0
-4 -9 10 0
-7 4 8 0
-2 -7 9 0
10 4 6 0
-1 -3 4 0
-2 -5 8 0
3 4 8 0
-1 -2 3 0
-6 -9 5 0
-9 1 7 0
-4 1 5 0
-3 -5 -8 0
10 2 8 0
-1 -9 8 0
-4 -9 3 0
-7 1 9 0
-6 2 5 0
-5 2 7 0
-2 10 6 0
-6 -9 4 0
-8 3 9 0
-10 -7 -9 0
-8 10 4 0
-6 3 5 0
-3 -4 7 0
-2 -6 -9 0
3 5 9 0
-8 1 5 0
-3 -6 -7 0
-2 5 8 0
-8 5 9 0
-3 -9 2 0
